Set parameter TokenServer to value "hpc-licenses.hpcc.usc.edu"
Set parameter TimeLimit to value 3600
Gurobi Optimizer version 9.5.1 build v9.5.1rc2 (linux64)
Thread count: 20 physical cores, 20 logical processors, using up to 20 threads
Optimize a model with 6007 rows, 4529 columns and 24534 nonzeros
Model fingerprint: 0xb537e2f4
Variable types: 4506 continuous, 23 integer (23 binary)
Coefficient statistics:
  Matrix range     [1e+00, 1e+00]
  Objective range  [7e-05, 1e+00]
  Bounds range     [1e+00, 1e+00]
  RHS range        [1e+00, 2e+02]
Presolve removed 1520 rows and 1515 columns
Presolve time: 0.10s
Presolved: 4487 rows, 3014 columns, 21975 nonzeros
Variable types: 2994 continuous, 20 integer (20 binary)
Found heuristic solution: objective 264.9693376

Root relaxation: objective 2.771075e+02, 3167 iterations, 0.14 seconds (0.15 work units)

    Nodes    |    Current Node    |     Objective Bounds      |     Work
 Expl Unexpl |  Obj  Depth IntInf | Incumbent    BestBd   Gap | It/Node Time

     0     0  277.10748    0    2  264.96934  277.10748  4.58%     -    0s
     0     0  277.02835    0    2  264.96934  277.02835  4.55%     -    0s
     0     0  276.27022    0    2  264.96934  276.27022  4.26%     -    0s
H    0     0                     265.8770352  276.06573  3.83%     -    0s
     0     0  276.05724    0    2  265.87704  276.05724  3.83%     -    0s
     0     0  276.02478    0    3  265.87704  276.02478  3.82%     -    0s
     0     0  275.97212    0    3  265.87704  275.97212  3.80%     -    0s
     0     0  275.93573    0    3  265.87704  275.93573  3.78%     -    0s
     0     0  275.87708    0    3  265.87704  275.87708  3.76%     -    0s
     0     0  275.84124    0    3  265.87704  275.84124  3.75%     -    0s
     0     0  275.80534    0    3  265.87704  275.80534  3.73%     -    0s
     0     0  275.77375    0    3  265.87704  275.77375  3.72%     -    0s
     0     0  275.72823    0    3  265.87704  275.72823  3.71%     -    0s
     0     0  275.70015    0    3  265.87704  275.70015  3.69%     -    0s
     0     0  275.63699    0    3  265.87704  275.63699  3.67%     -    0s
     0     0  275.30740    0    3  265.87704  275.30740  3.55%     -    0s
     0     0  275.30740    0    3  265.87704  275.30740  3.55%     -    0s
H    0     0                     267.4396506  275.30740  2.94%     -    1s
     0     0  274.89295    0    7  267.43965  274.89295  2.79%     -    1s
     0     0  274.89295    0    2  267.43965  274.89295  2.79%     -    1s
     0     0  274.89295    0    4  267.43965  274.89295  2.79%     -    1s
H    0     0                     272.8954771  274.89295  0.73%     -    1s
     0     0  274.89269    0    6  272.89548  274.89269  0.73%     -    1s
     0     0  274.89269    0    2  272.89548  274.89269  0.73%     -    1s
     0     0  274.89269    0    2  272.89548  274.89269  0.73%     -    2s
     0     0  274.89269    0    2  272.89548  274.89269  0.73%     -    2s
     0     0  274.89269    0    3  272.89548  274.89269  0.73%     -    2s
     0     0  274.89269    0    4  272.89548  274.89269  0.73%     -    2s
     0     0  274.89269    0    5  272.89548  274.89269  0.73%     -    2s
     0     0  274.89269    0    6  272.89548  274.89269  0.73%     -    3s
     0     0  274.89269    0    5  272.89548  274.89269  0.73%     -    3s
     0     0  274.89269    0    5  272.89548  274.89269  0.73%     -    3s
     0     0  274.89269    0    2  272.89548  274.89269  0.73%     -    3s
     0     0  274.89269    0    4  272.89548  274.89269  0.73%     -    3s
     0     0  274.89269    0    2  272.89548  274.89269  0.73%     -    3s
H    0     0                     274.6326116  274.88936  0.09%     -    3s
     0     0  274.63261    0    6  274.63261  274.63261  0.00%     -    3s

Cutting planes:
  Gomory: 7
  MIR: 663
  Flow cover: 52
  RLT: 11
  Relax-and-lift: 3

Explored 1 nodes (8538 simplex iterations) in 3.18 seconds (1.60 work units)
Thread count was 20 (of 20 available processors)

Solution count 5: 274.633 272.895 267.44 ... 264.969

Optimal solution found (tolerance 1.00e-04)
Best objective 2.746326116308e+02, best bound 2.746326116308e+02, gap 0.0000%



#########node  1
V1.6
#########node  2
0.030612244897959218,0.9693877551020408
#########node  3
1.0,0.0


Total Solving Time 3.581778049468994
obj value 274.6326116307685
Policy Regret train (Sum) 7.333573780976075
Best Treatment Found train (%) 64.2
treatment classification acc train (%) 20.200000000000003
Policy Regret test (Sum) 28.73848887990478
Best Treatment Found test (%) 83.74000000000001
treatment classification acc test (%) 17.8
